outputs/case_45.model.txt
employee_violation = True
internal_control_system_established = True
violation_issuance_and_management_rules = False
violation_178_1_minor_flag = False
director_violation = True
supervisor_violation = False
non_compliance_found = True
internal_control_system_updated_within_deadline = False
penalty_level_warning = 0
internal_control_system_executed = False
penalty_level_suspension = 1
penalty_level_revocation = 0
penalty_level_dismissal = 0
violation_of_law_or_order = True
improper_bookkeeping_or_reporting = False
violation_specified_articles = True
failure_to_submit_or_obstruct_inspection = False
violation_affects_business = False
violation_178_1_4 = True
violation_related_institutions_rules = False
violation_financial_business_management_rules = True
honesty_and_credit_followed = False
violation_178_1_improvement_completed = True
penalty_level_other = 0
use_others_or_relatives_name_for_client_trading = False
promote_unapproved_securities_or_derivatives = False
accept_unauthorized_agent_trading = False
illegal_disclosure_of_client_info = False
company_officer_or_employee_agent_trading = False
other_prohibited_acts = False
accept_orders_with_market_manipulation_intent = False
induce_trading_by_price_prediction = False
joint_risk_sharing_with_client = False
accept_full_power_of_attorney = False
underwriter_improper_benefit_agreement = False
profit_guarantee_or_sharing = False
accept_non_owner_account_opening = False
unauthorized_agent_account_opening_or_trading = False
promote_unapproved_stocks = False
loan_or_mediation_with_client = False
misappropriation_or_custody_violation = False
offsetting_trades_not_allowed = False
accept_client_without_proper_contract = False
self_dealing_in_client_orders = False
use_client_account_for_trading = False
fraud_or_concealment_in_underwriting_or_trading = False
speculative_trading_using_insider_info = False
not_follow_client_instructions = False
internal_control_updated = False
prohibited_behavior_16 = True
prohibited_behavior_10 = True
prohibited_behavior_2 = True
prohibited_behavior_23 = True
prohibited_behavior_12 = True
prohibited_behavior_11 = True
prohibited_behavior_15 = True
prohibited_behavior_4 = True
prohibited_behavior_20 = True
internal_control_executed = False
prohibited_behavior_22 = True
prohibited_behavior_3 = True
prohibited_behavior_6 = True
violation_178_1_any = True
prohibited_behavior_21 = True
violation_affecting_business_alt2 = False
internal_control_established = True
prohibited_behavior_18 = True
violation_178_1_5 = True
correction_order_issued = True
prohibited_behavior_7 = True
honesty_and_credit_principle = False
prohibited_behavior_9 = True
prohibited_behavior_8 = True
violation_and_penalty = True
violation_affecting_business_any = False
prohibited_behavior_24 = True
prohibited_behavior_14 = True
prohibited_behavior_19 = True
prohibited_behavior_17 = True
prohibited_behavior_13 = True
violation_178_1_minor = False
prohibited_behavior_5 = True
all_prohibited_behaviors_ok = True
violation_178_1_improved = True
violation_178_1_1 = True
violation_affecting_business = False
penalty_level = 3
violation_affecting_business_alt = False
violation_178_1_3 = False
violation_178_1_2 = False
penalty = False
violation_178_1_6 = False
prohibited_behavior_1 = True
violation_178_1_7 = False